<?xml version = "1.0" encoding="UTF-8" standalone="yes"?>
<CPLEXSolution version="1.2">
 <header
   problemName="IloCplex"
   solutionName="p0"
   solutionIndex="-1"
   objectiveValue="-5017792522"
   solutionTypeValue="3"
   solutionTypeString="primal"
   solutionStatusValue="127"
   solutionStatusString="integer feasible solution"
   solutionMethodString="mip"
   primalFeasible="0"
   dualFeasible="0"
   writeLevel="3"/>
 <quality
   epInt="1.0000000000000001e-05"
   epRHS="9.9999999999999995e-07"
   maxIntInfeas="0"
   maxPrimalInfeas="0"
   maxX="1"
   maxSlack="1"/>
 <variables>
  <variable name="w0_3" index="3" value="1"/>
  <variable name="w0_12" index="12" value="1"/>
  <variable name="w0_13" index="13" value="1"/>
  <variable name="w1_3" index="18" value="1"/>
  <variable name="w1_12" index="27" value="1"/>
  <variable name="w1_13" index="28" value="1"/>
  <variable name="w4_3" index="63" value="1"/>
  <variable name="w4_12" index="72" value="1"/>
  <variable name="w4_13" index="73" value="1"/>
  <variable name="w5_3" index="78" value="1"/>
  <variable name="w5_12" index="87" value="1"/>
  <variable name="w5_13" index="88" value="1"/>
  <variable name="w6_3" index="93" value="1"/>
  <variable name="w6_12" index="102" value="1"/>
  <variable name="w6_13" index="103" value="1"/>
  <variable name="w7_3" index="108" value="1"/>
  <variable name="w7_12" index="117" value="1"/>
  <variable name="w7_13" index="118" value="1"/>
  <variable name="w9_3" index="138" value="1"/>
  <variable name="w9_12" index="147" value="1"/>
  <variable name="w9_13" index="148" value="1"/>
  <variable name="w18_3" index="273" value="1"/>
  <variable name="w18_12" index="282" value="1"/>
  <variable name="w18_13" index="283" value="1"/>
  <variable name="w19_3" index="288" value="1"/>
  <variable name="w19_12" index="297" value="1"/>
  <variable name="w19_13" index="298" value="1"/>
  <variable name="k0" index="300" value="1"/>
  <variable name="k1" index="301" value="1"/>
  <variable name="k4" index="304" value="1"/>
  <variable name="k5" index="305" value="1"/>
  <variable name="k6" index="306" value="1"/>
  <variable name="k7" index="307" value="1"/>
  <variable name="k9" index="309" value="1"/>
  <variable name="k18" index="318" value="1"/>
  <variable name="k19" index="319" value="1"/>
  <variable name="x0_85" index="405" value="1"/>
  <variable name="x1_39" index="509" value="1"/>
  <variable name="x2_139" index="759" value="1"/>
  <variable name="x3_67" index="837" value="1"/>
  <variable name="x4_53" index="973" value="1"/>
  <variable name="x5_6" index="1076" value="1"/>
  <variable name="x6_31" index="1251" value="1"/>
  <variable name="x7_149" index="1519" value="1"/>
  <variable name="x8_100" index="1620" value="1"/>
  <variable name="x9_113" index="1783" value="1"/>
  <variable name="x10_69" index="1889" value="1"/>
  <variable name="x11_93" index="2063" value="1"/>
  <variable name="x12_71" index="2191" value="1"/>
  <variable name="x13_125" index="2395" value="1"/>
  <variable name="x14_4" index="2424" value="1"/>
  <variable name="x15_132" index="2702" value="1"/>
  <variable name="x16_49" index="2769" value="1"/>
  <variable name="x17_74" index="2944" value="1"/>
  <variable name="x18_65" index="3085" value="1"/>
  <variable name="x19_43" index="3213" value="1"/>
  <variable name="x20_83" index="3403" value="1"/>
  <variable name="x21_81" index="3551" value="1"/>
  <variable name="x22_10" index="3630" value="1"/>
  <variable name="x23_18" index="3788" value="1"/>
  <variable name="x24_38" index="3958" value="1"/>
  <variable name="x25_58" index="4128" value="1"/>
  <variable name="x26_54" index="4274" value="1"/>
  <variable name="x27_89" index="4459" value="1"/>
  <variable name="x28_133" index="4653" value="1"/>
  <variable name="x29_47" index="4717" value="1"/>
  <variable name="x30_64" index="4884" value="1"/>
  <variable name="x31_140" index="5110" value="1"/>
  <variable name="x32_146" index="5266" value="1"/>
  <variable name="x33_143" index="5413" value="1"/>
  <variable name="x34_0" index="5420" value="1"/>
  <variable name="x35_123" index="5693" value="1"/>
  <variable name="x36_1" index="5721" value="1"/>
  <variable name="x37_32" index="5902" value="1"/>
  <variable name="x38_52" index="6072" value="1"/>
  <variable name="x39_27" index="6197" value="1"/>
  <variable name="x40_35" index="6355" value="1"/>
  <variable name="x41_55" index="6525" value="1"/>
  <variable name="x42_144" index="6764" value="1"/>
  <variable name="x43_84" index="6854" value="1"/>
  <variable name="x44_80" index="7000" value="1"/>
  <variable name="x45_141" index="7211" value="1"/>
  <variable name="x46_21" index="7241" value="1"/>
  <variable name="x47_131" index="7501" value="1"/>
  <variable name="x48_66" index="7586" value="1"/>
  <variable name="x49_137" index="7807" value="1"/>
  <variable name="x50_28" index="7848" value="1"/>
  <variable name="x51_50" index="8020" value="1"/>
  <variable name="x52_17" index="8137" value="1"/>
  <variable name="x53_115" index="8385" value="1"/>
  <variable name="x54_134" index="8554" value="1"/>
  <variable name="x55_117" index="8687" value="1"/>
  <variable name="x56_40" index="8760" value="1"/>
  <variable name="x57_26" index="8896" value="1"/>
  <variable name="x58_57" index="9077" value="1"/>
  <variable name="x59_102" index="9272" value="1"/>
  <variable name="x60_129" index="9449" value="1"/>
  <variable name="x61_95" index="9565" value="1"/>
  <variable name="x62_44" index="9664" value="1"/>
  <variable name="x63_56" index="9826" value="1"/>
  <variable name="x64_63" index="9983" value="1"/>
  <variable name="x65_15" index="10085" value="1"/>
  <variable name="x66_3" index="10223" value="1"/>
  <variable name="x67_36" index="10406" value="1"/>
  <variable name="x68_7" index="10527" value="1"/>
  <variable name="x69_14" index="10684" value="1"/>
  <variable name="x70_116" index="10936" value="1"/>
  <variable name="x71_79" index="11049" value="1"/>
  <variable name="x72_88" index="11208" value="1"/>
  <variable name="x73_101" index="11371" value="1"/>
  <variable name="x74_98" index="11518" value="1"/>
  <variable name="x75_60" index="11630" value="1"/>
  <variable name="x76_111" index="11831" value="1"/>
  <variable name="x77_86" index="11956" value="1"/>
  <variable name="x78_34" index="12054" value="1"/>
  <variable name="x79_59" index="12229" value="1"/>
  <variable name="x80_8" index="12328" value="1"/>
  <variable name="x81_114" index="12584" value="1"/>
  <variable name="x82_37" index="12657" value="1"/>
  <variable name="x83_62" index="12832" value="1"/>
  <variable name="x84_97" index="13017" value="1"/>
  <variable name="x85_94" index="13164" value="1"/>
  <variable name="x86_130" index="13350" value="1"/>
  <variable name="x87_110" index="13480" value="1"/>
  <variable name="x88_61" index="13581" value="1"/>
  <variable name="x89_76" index="13746" value="1"/>
  <variable name="x90_148" index="13968" value="1"/>
  <variable name="x91_73" index="14043" value="1"/>
  <variable name="x92_68" index="14188" value="1"/>
  <variable name="x93_142" index="14412" value="1"/>
  <variable name="x94_9" index="14429" value="1"/>
  <variable name="x95_126" index="14696" value="1"/>
  <variable name="x96_105" index="14825" value="1"/>
  <variable name="x97_138" index="15008" value="1"/>
  <variable name="x98_82" index="15102" value="1"/>
  <variable name="x99_90" index="15260" value="1"/>
  <variable name="x100_122" index="15442" value="1"/>
  <variable name="x101_41" index="15511" value="1"/>
  <variable name="x102_78" index="15698" value="1"/>
  <variable name="x103_108" index="15878" value="1"/>
  <variable name="x104_75" index="15995" value="1"/>
  <variable name="x105_120" index="16190" value="1"/>
  <variable name="x106_87" index="16307" value="1"/>
  <variable name="x107_104" index="16474" value="1"/>
  <variable name="x108_13" index="16533" value="1"/>
  <variable name="x109_92" index="16762" value="1"/>
  <variable name="x110_112" index="16932" value="1"/>
  <variable name="x111_25" index="16995" value="1"/>
  <variable name="x112_46" index="17166" value="1"/>
  <variable name="x113_107" index="17377" value="1"/>
  <variable name="x114_103" index="17523" value="1"/>
  <variable name="x115_11" index="17581" value="1"/>
  <variable name="x116_106" index="17826" value="1"/>
  <variable name="x117_23" index="17893" value="1"/>
  <variable name="x118_145" index="18165" value="1"/>
  <variable name="x119_147" index="18317" value="1"/>
  <variable name="x120_33" index="18353" value="1"/>
  <variable name="x121_96" index="18566" value="1"/>
  <variable name="x122_99" index="18719" value="1"/>
  <variable name="x123_45" index="18815" value="1"/>
  <variable name="x124_121" index="19041" value="1"/>
  <variable name="x125_77" index="19147" value="1"/>
  <variable name="x126_91" index="19311" value="1"/>
  <variable name="x127_24" index="19394" value="1"/>
  <variable name="x128_119" index="19639" value="1"/>
  <variable name="x129_127" index="19797" value="1"/>
  <variable name="x130_136" index="19956" value="1"/>
  <variable name="x131_124" index="20094" value="1"/>
  <variable name="x132_72" index="20192" value="1"/>
  <variable name="x133_118" index="20388" value="1"/>
  <variable name="x134_42" index="20462" value="1"/>
  <variable name="x135_22" index="20592" value="1"/>
  <variable name="x136_70" index="20790" value="1"/>
  <variable name="x137_2" index="20872" value="1"/>
  <variable name="x138_29" index="21049" value="1"/>
  <variable name="x139_16" index="21186" value="1"/>
  <variable name="x140_128" index="21448" value="1"/>
  <variable name="x141_135" index="21605" value="1"/>
  <variable name="x142_20" index="21640" value="1"/>
  <variable name="x143_19" index="21789" value="1"/>
  <variable name="x144_30" index="21950" value="1"/>
  <variable name="x145_109" index="22179" value="1"/>
  <variable name="x146_51" index="22271" value="1"/>
  <variable name="x147_48" index="22418" value="1"/>
  <variable name="x148_5" index="22525" value="1"/>
  <variable name="x149_12" index="22682" value="1"/>
  <variable name="u3" index="22823" value="1"/>
  <variable name="u12" index="22832" value="1"/>
  <variable name="u13" index="22833" value="1"/>
 </variables>
</CPLEXSolution>
